83 300 101 111 132 145 145 114 118 137 139 100 126 118 108 134 103 109 123 129 137 124 117 110 115 103 129 127 106 121 145 118 125 146 129 131 115 149 120 133 109 108 108 109 126 116 117 104 150 141 133 136 114 124 120 104 127 149 131 133 145 125 125 144 146 104 150 135 127 119 117 136 101 150 120 102 116 137 106 140 127 113 100 142 137 